33D32945 STP File, STP Format Version 1.0

SECTION Comment
Name "full_34"
END

SECTION Graph
Nodes 34
Edges 561
E 26 25 8
E 28 25 3
E 27 25 13
E 29 25 14
E 16 4 4
E 16 3 15
E 16 2 17
E 15 14 20
E 28 9 3
E 28 8 12
E 28 7 15
E 19 14 3
E 28 6 17
E 18 14 5
E 28 5 10
E 17 14 9
E 28 4 11
E 16 14 3
E 34 25 10
E 27 4 3
E 27 3 6
E 31 25 7
E 30 25 5
E 33 25 4
E 32 25 20
E 26 14 17
E 25 14 4
E 24 14 16
E 16 9 17
E 23 14 14
E 16 8 20
E 16 7 19
E 29 14 2
E 16 6 12
E 28 14 9
E 16 5 16
E 27 14 2
E 22 14 5
E 21 14 8
E 20 14 3
E 34 24 2
E 33 24 2
E 15 5 15
E 15 4 9
E 15 3 15
E 19 13 10
E 15 2 14
E 30 24 15
E 32 24 5
E 31 24 6
E 24 13 8
E 25 13 19
E 22 13 10
E 27 9 13
E 23 13 11
E 27 8 1
E 28 13 18
E 27 7 14
E 29 13 5
E 27 6 5
E 26 13 18
E 27 5 12
E 27 13 14
E 20 13 8
E 21 13 18
E 26 5 18
E 26 4 6
E 26 3 8
E 33 13 19
E 34 13 9
E 15 9 2
E 15 8 19
E 15 7 11
E 15 6 2
E 31 13 8
E 32 13 13
E 30 13 15
E 14 6 11
E 14 5 18
E 14 4 18
E 29 12 8
E 14 3 5
E 14 2 3
E 34 12 5
E 32 12 14
E 33 12 19
E 26 9 3
E 26 8 17
E 26 7 12
E 26 6 18
E 30 12 3
E 31 12 9
E 25 24 15
E 27 24 19
E 26 24 15
E 29 24 10
E 28 24 12
E 25 6 18
E 25 5 9
E 25 4 8
E 25 3 20
E 14 13 7
E 17 13 1
E 14 9 7
E 18 13 8
E 14 8 20
E 15 13 8
E 14 7 19
E 16 13 13
E 24 23 11
E 25 23 11
E 26 23 17
E 27 23 6
E 28 23 1
E 13 7 19
E 13 6 11
E 13 5 17
E 13 4 9
E 13 3 18
E 13 2 15
E 13 12 18
E 16 12 3
E 25 9 15
E 17 12 9
E 25 8 15
E 14 12 4
E 25 7 8
E 15 12 16
E 32 23 4
E 33 23 14
E 34 23 3
E 24 7 14
E 24 6 14
E 24 5 2
E 18 12 16
E 24 4 2
E 19 12 19
E 24 3 6
E 30 23 7
E 31 23 16
E 23 12 10
E 24 12 12
E 21 12 17
E 22 12 6
E 27 12 11
E 28 12 9
E 13 9 6
E 25 12 19
E 13 8 10
E 26 12 3
E 29 23 14
E 20 12 12
E 12 8 15
E 12 7 12
E 12 6 4
E 12 5 17
E 12 4 2
E 12 3 12
E 12 2 7
E 24 9 2
E 24 8 18
E 31 16 14
E 30 16 7
E 34 16 3
E 33 16 10
E 32 16 2
E 29 28 7
E 23 8 2
E 23 7 2
E 23 6 13
E 23 5 10
E 23 4 4
E 23 3 18
E 19 17 20
E 12 9 18
E 18 17 16
E 28 27 11
E 29 27 16
E 34 8 12
E 11 9 16
E 34 7 4
E 11 8 5
E 34 6 3
E 11 7 7
E 34 5 19
E 11 6 16
E 34 4 19
E 11 5 13
E 11 4 7
E 11 3 4
E 11 2 8
E 17 16 10
E 19 16 3
E 23 9 12
E 18 16 12
E 22 9 14
E 30 27 7
E 22 8 17
E 31 27 2
E 22 7 5
E 22 6 10
E 22 5 3
E 34 27 11
E 22 4 20
E 22 3 14
E 32 27 6
E 33 27 6
E 28 16 2
E 27 16 20
E 26 16 13
E 25 16 12
E 9 8 12
E 34 9 10
E 29 16 10
E 20 16 6
E 24 16 13
E 23 16 5
E 22 16 12
E 21 16 1
E 10 2 14
E 33 9 20
E 33 8 12
E 10 9 8
E 30 26 8
E 33 7 7
E 10 8 1
E 33 6 10
E 10 7 14
E 33 5 16
E 10 6 2
E 33 26 8
E 33 4 15
E 10 5 18
E 34 26 12
E 10 4 7
E 31 26 8
E 10 3 1
E 32 26 13
E 27 15 18
E 26 15 2
E 25 15 9
E 24 15 10
E 29 15 16
E 28 15 17
E 23 15 9
E 22 15 5
E 21 15 12
E 20 15 12
E 21 9 3
E 21 8 20
E 21 7 12
E 21 6 18
E 21 5 15
E 21 4 13
E 21 3 15
E 8 7 8
E 9 7 8
E 30 15 3
E 34 15 12
E 33 15 14
E 32 15 9
E 31 15 9
E 32 9 18
E 32 8 16
E 32 7 18
E 32 6 12
E 32 5 15
E 32 4 16
E 34 14 6
E 33 14 16
E 32 14 16
E 31 14 9
E 30 14 7
E 20 3 17
E 27 26 10
E 28 26 16
E 29 26 3
E 20 9 16
E 20 8 15
E 20 7 19
E 20 6 11
E 20 5 1
E 20 4 17
E 16 15 16
E 7 6 16
E 8 6 9
E 9 6 11
E 19 15 10
E 18 15 7
E 17 15 12
E 19 1 18
E 18 1 9
E 31 9 10
E 31 8 11
E 31 7 3
E 31 6 15
E 31 5 11
E 31 4 19
E 29 19 8
E 28 19 8
E 17 1 14
E 25 19 15
E 34 31 5
E 16 1 10
E 24 19 6
E 33 31 8
E 15 1 13
E 27 19 14
E 14 1 20
E 26 19 11
E 13 1 3
E 21 19 19
E 12 1 8
E 20 19 16
E 11 1 13
E 23 19 8
E 32 31 7
E 10 1 6
E 22 19 18
E 30 19 18
E 29 1 15
E 25 20 13
E 24 20 10
E 23 20 7
E 22 20 5
E 21 20 10
E 20 1 20
E 6 5 2
E 7 5 17
E 8 5 18
E 9 5 5
E 28 1 5
E 27 1 11
E 26 1 11
E 25 1 15
E 24 1 7
E 32 19 9
E 23 1 20
E 31 19 11
E 22 1 7
E 34 19 8
E 21 1 20
E 33 19 20
E 30 4 6
E 30 9 17
E 30 8 8
E 30 7 3
E 30 6 6
E 30 5 15
E 31 1 19
E 30 1 13
E 34 18 18
E 30 18 2
E 34 1 12
E 31 18 18
E 33 1 6
E 32 18 6
E 32 1 11
E 33 18 15
E 5 4 10
E 6 4 13
E 7 4 15
E 8 4 5
E 9 4 1
E 33 30 8
E 32 30 5
E 34 30 1
E 31 30 10
E 21 2 1
E 20 2 15
E 19 18 11
E 29 2 2
E 28 2 10
E 27 2 16
E 26 2 10
E 25 2 19
E 24 2 7
E 23 2 16
E 22 2 2
E 33 29 14
E 32 29 9
E 31 29 14
E 30 29 7
E 4 3 4
E 5 3 18
E 6 3 17
E 34 29 16
E 32 2 9
E 7 3 20
E 31 2 4
E 8 3 5
E 30 2 16
E 9 3 17
E 27 18 10
E 28 18 14
E 29 18 19
E 23 18 10
E 24 18 12
E 25 18 3
E 26 18 20
E 20 18 14
E 34 2 5
E 21 18 15
E 33 2 14
E 22 18 20
E 31 28 2
E 32 28 4
E 30 28 10
E 33 28 14
E 34 28 19
E 26 17 3
E 27 17 2
E 28 17 5
E 29 17 12
E 22 17 2
E 23 17 19
E 24 17 16
E 25 17 8
E 20 17 17
E 21 17 13
E 3 2 11
E 4 2 7
E 5 2 19
E 6 2 12
E 7 2 6
E 8 2 15
E 9 2 20
E 33 17 6
E 34 17 6
E 30 17 2
E 31 17 4
E 32 17 2
E 31 22 7
E 32 22 16
E 33 22 6
E 34 22 17
E 18 11 7
E 17 11 5
E 19 11 10
E 30 22 3
E 34 3 18
E 21 11 18
E 20 11 18
E 23 11 14
E 22 11 19
E 25 11 8
E 24 11 6
E 27 11 9
E 26 11 14
E 28 22 4
E 29 22 19
E 30 3 8
E 31 3 6
E 32 3 14
E 33 3 17
E 29 11 17
E 2 1 4
E 28 11 7
E 3 1 20
E 4 1 14
E 5 1 14
E 6 1 16
E 7 1 4
E 8 1 18
E 9 1 16
E 32 11 13
E 31 11 9
E 34 11 12
E 33 11 14
E 30 11 11
E 28 10 20
E 27 10 12
E 29 10 10
E 31 10 14
E 30 10 11
E 33 10 15
E 32 10 4
E 34 10 15
E 34 33 15
E 23 22 17
E 24 22 13
E 25 22 2
E 26 22 5
E 27 22 16
E 19 9 5
E 19 8 17
E 19 7 12
E 12 11 18
E 19 6 9
E 19 5 9
E 14 11 11
E 19 4 15
E 13 11 3
E 19 3 1
E 16 11 2
E 19 2 7
E 15 11 7
E 18 2 19
E 26 21 19
E 25 21 7
E 24 21 20
E 23 21 18
E 22 21 15
E 11 10 20
E 13 10 7
E 12 10 2
E 15 10 13
E 14 10 19
E 17 10 1
E 16 10 18
E 19 10 13
E 18 10 6
E 34 21 4
E 33 21 3
E 32 21 11
E 31 21 6
E 30 21 6
E 20 10 5
E 18 9 5
E 18 8 17
E 22 10 3
E 18 7 14
E 21 10 14
E 18 6 10
E 24 10 19
E 18 5 8
E 23 10 8
E 29 21 9
E 18 4 1
E 26 10 12
E 28 21 9
E 18 3 19
E 25 10 6
E 27 21 7
E 34 32 18
E 33 32 9
E 17 3 1
E 17 2 10
E 34 20 6
E 33 20 7
E 32 20 7
E 31 20 11
E 30 20 13
E 29 9 14
E 29 8 4
E 29 7 13
E 29 6 2
E 29 20 10
E 29 5 20
E 28 20 12
E 29 4 13
E 27 20 6
E 29 3 17
E 26 20 12
E 28 3 5
E 17 9 6
E 17 8 19
E 17 7 1
E 17 6 17
E 17 5 16
E 17 4 10
END

SECTION Terminals
Terminals 10
T 3
T 6
T 9
T 12
T 13
T 16
T 21
T 22
T 29
T 33
END

EOF
